
Gurobi 9.5.2 (mac64[arm]) logging started Fri Apr 28 20:58:07 2023

Set parameter LogFile to value "Java/output/iterative_model_2_machine/scenario_seed_4_nJob_50_machineCount_2/mip_increment_2/log.txt"
Gurobi Optimizer version 9.5.2 build v9.5.2rc0 (mac64[arm])
Thread count: 8 physical cores, 8 logical processors, using up to 8 threads
Optimize a model with 1250 rows, 9894 columns and 67994 nonzeros
Model fingerprint: 0xa9eb3057
Variable types: 0 continuous, 9894 integer (9894 binary)
Coefficient statistics:
  Matrix range     [1e+00, 2e+02]
  Objective range  [2e+01, 4e+06]
  Bounds range     [1e+00, 1e+00]
  RHS range        [1e+00, 1e+00]
Found heuristic solution: objective 2.640622e+07
Presolve removed 78 rows and 1217 columns
Presolve time: 0.09s
Presolved: 1172 rows, 8677 columns, 59612 nonzeros
Variable types: 0 continuous, 8677 integer (8675 binary)
Found heuristic solution: objective 2.428802e+07

Root relaxation: objective 1.042833e+04, 1957 iterations, 0.07 seconds (0.14 work units)

    Nodes    |    Current Node    |     Objective Bounds      |     Work
 Expl Unexpl |  Obj  Depth IntInf | Incumbent    BestBd   Gap | It/Node Time

     0     0 10428.3317    0  112 2.4288e+07 10428.3317   100%     -    0s
H    0     0                    1.260138e+07 10428.3317   100%     -    0s
H    0     0                    8557984.0000 10428.3317   100%     -    0s
H    0     0                    3546512.0000 10428.3317   100%     -    0s
H    0     0                    209760.00000 10457.2226  95.0%     -    0s
H    0     0                    209728.00000 10457.2226  95.0%     -    0s
     0     0 10457.2226    0  179 209728.000 10457.2226  95.0%     -    0s
H    0     0                    209584.00000 10457.2226  95.0%     -    0s
     0     0 10458.8089    0  163 209584.000 10458.8089  95.0%     -    0s
     0     0 10458.8375    0  169 209584.000 10458.8375  95.0%     -    0s
     0     0 10466.2714    0  153 209584.000 10466.2714  95.0%     -    0s
     0     0 10466.2714    0  116 209584.000 10466.2714  95.0%     -    0s
H    0     0                    209392.00000 10466.2714  95.0%     -    0s
H    0     0                    209328.00000 10466.2714  95.0%     -    0s
     0     0 10500.8824    0  190 209328.000 10500.8824  95.0%     -    0s
H    0     0                    209232.00000 10500.8824  95.0%     -    0s
     0     0 10544.6405    0  183 209232.000 10544.6405  95.0%     -    0s
     0     0 10545.8232    0  180 209232.000 10545.8232  95.0%     -    0s
     0     0 10545.9179    0  187 209232.000 10545.9179  95.0%     -    0s
     0     0 10546.0927    0  164 209232.000 10546.0927  95.0%     -    0s
     0     0 10546.1103    0  167 209232.000 10546.1103  95.0%     -    0s
H    0     0                    209200.00000 10546.1103  95.0%     -    1s
     0     0 10898.9948    0  185 209200.000 10898.9948  94.8%     -    1s
H    0     0                    209168.00000 10898.9948  94.8%     -    1s
     0     0 10922.9599    0  207 209168.000 10922.9599  94.8%     -    1s
     0     0 10922.9599    0  209 209168.000 10922.9599  94.8%     -    1s
H    0     0                    208992.00000 10922.9599  94.8%     -    1s
     0     0 11641.5405    0  217 208992.000 11641.5405  94.4%     -    1s
     0     0 11748.4269    0  216 208992.000 11748.4269  94.4%     -    1s
     0     0 11792.0616    0  199 208992.000 11792.0616  94.4%     -    1s
     0     0 11792.1808    0  205 208992.000 11792.1808  94.4%     -    1s
H    0     0                    208960.00000 11792.1808  94.4%     -    1s
H    0     0                    208928.00000 11792.1808  94.4%     -    1s
H    0     0                    125568.00000 11792.1808  90.6%     -    1s
     0     0 12903.6406    0  201 125568.000 12903.6406  89.7%     -    1s
H    0     0                    125536.00000 12903.6406  89.7%     -    1s
     0     0 13233.0250    0  198 125536.000 13233.0250  89.5%     -    1s
     0     0 13237.0477    0  207 125536.000 13237.0477  89.5%     -    1s
     0     0 13237.1814    0  210 125536.000 13237.1814  89.5%     -    1s
     0     0 13583.6222    0  208 125536.000 13583.6222  89.2%     -    1s
H    0     0                    123776.00000 13583.6222  89.0%     -    1s
     0     0 13604.8874    0  229 123776.000 13604.8874  89.0%     -    1s
     0     0 13658.9455    0  210 123776.000 13658.9455  89.0%     -    1s
     0     0 13662.7434    0  215 123776.000 13662.7434  89.0%     -    1s
     0     0 13662.7836    0  220 123776.000 13662.7836  89.0%     -    1s
     0     0 14168.9842    0  240 123776.000 14168.9842  88.6%     -    1s
     0     0 14951.8515    0  237 123776.000 14951.8515  87.9%     -    1s
     0     0 15066.2851    0  208 123776.000 15066.2851  87.8%     -    1s
     0     0 15079.1396    0  219 123776.000 15079.1396  87.8%     -    1s
     0     0 15080.5051    0  228 123776.000 15080.5051  87.8%     -    1s
     0     0 17108.5268    0  251 123776.000 17108.5268  86.2%     -    1s
     0     0 18250.1315    0  245 123776.000 18250.1315  85.3%     -    1s
     0     0 18388.5026    0  233 123776.000 18388.5026  85.1%     -    2s
     0     0 18399.5784    0  239 123776.000 18399.5784  85.1%     -    2s
     0     0 18401.6514    0  248 123776.000 18401.6514  85.1%     -    2s
     0     0 20499.0883    0  235 123776.000 20499.0883  83.4%     -    2s
     0     0 20638.9006    0  250 123776.000 20638.9006  83.3%     -    2s
     0     0 20645.5683    0  240 123776.000 20645.5683  83.3%     -    2s
     0     0 22854.3931    0  240 123776.000 22854.3931  81.5%     -    2s
     0     0 23310.2062    0  259 123776.000 23310.2062  81.2%     -    2s
     0     0 23325.4474    0  271 123776.000 23325.4474  81.2%     -    2s
     0     0 23326.3721    0  267 123776.000 23326.3721  81.2%     -    2s
H    0     0                    123728.00000 23326.3721  81.1%     -    2s
     0     0 25454.5810    0  267 123728.000 25454.5810  79.4%     -    2s
     0     0 25509.2583    0  272 123728.000 25509.2583  79.4%     -    2s
     0     0 25528.5801    0  276 123728.000 25528.5801  79.4%     -    2s
     0     0 25532.7350    0  295 123728.000 25532.7350  79.4%     -    2s
H    0     0                    86800.000000 25532.7350  70.6%     -    2s
     0     0 28495.3347    0  220 86800.0000 28495.3347  67.2%     -    2s
     0     0 28619.7369    0  239 86800.0000 28619.7369  67.0%     -    2s
     0     0 28624.5643    0  250 86800.0000 28624.5643  67.0%     -    2s
     0     0 34377.9064    0  225 86800.0000 34377.9064  60.4%     -    2s
     0     0 34826.4790    0  267 86800.0000 34826.4790  59.9%     -    2s
     0     0 34840.1955    0  255 86800.0000 34840.1955  59.9%     -    2s
     0     0 39517.5543    0  234 86800.0000 39517.5543  54.5%     -    3s
     0     0 40140.9139    0  236 86800.0000 40140.9139  53.8%     -    3s
     0     0 40256.1048    0  242 86800.0000 40256.1048  53.6%     -    3s
     0     0 40263.4434    0  262 86800.0000 40263.4434  53.6%     -    3s
     0     0 43158.1293    0  227 86800.0000 43158.1293  50.3%     -    3s
     0     0 43565.8897    0  253 86800.0000 43565.8897  49.8%     -    3s
     0     0 43668.7709    0  257 86800.0000 43668.7709  49.7%     -    3s
     0     0 43695.1631    0  251 86800.0000 43695.1631  49.7%     -    3s
     0     0 45887.4097    0  259 86800.0000 45887.4097  47.1%     -    3s
     0     0 46314.5303    0  264 86800.0000 46314.5303  46.6%     -    3s
     0     0 46329.1041    0  284 86800.0000 46329.1041  46.6%     -    3s
     0     0 46591.9476    0  263 86800.0000 46591.9476  46.3%     -    3s
     0     0 46651.2940    0  264 86800.0000 46651.2940  46.3%     -    3s
     0     0 46659.9428    0  268 86800.0000 46659.9428  46.2%     -    3s
     0     0 47628.0413    0  220 86800.0000 47628.0413  45.1%     -    3s
     0     0 47734.0063    0  250 86800.0000 47734.0063  45.0%     -    3s
     0     0 47756.3274    0  237 86800.0000 47756.3274  45.0%     -    3s
     0     0 48715.8863    0  259 86800.0000 48715.8863  43.9%     -    3s
H    0     0                    69552.000000 48715.8863  30.0%     -    3s
     0     0 48761.5973    0  227 69552.0000 48761.5973  29.9%     -    3s
     0     0 48904.0955    0  260 69552.0000 48904.0955  29.7%     -    4s
     0     0 48904.0955    0  256 69552.0000 48904.0955  29.7%     -    4s
H    0     0                    67344.000000 48905.9943  27.4%     -    4s
     0     0 48905.9943    0  115 67344.0000 48905.9943  27.4%     -    4s
     0     0 48905.9943    0  187 67344.0000 48905.9943  27.4%     -    4s
     0     0 48905.9943    0  199 67344.0000 48905.9943  27.4%     -    4s
     0     0 49402.7188    0  218 67344.0000 49402.7188  26.6%     -    4s
     0     0 50776.1214    0  192 67344.0000 50776.1214  24.6%     -    4s
     0     0 50957.6141    0  215 67344.0000 50957.6141  24.3%     -    4s
     0     0 51113.0231    0  229 67344.0000 51113.0231  24.1%     -    4s
     0     0 51117.9328    0  230 67344.0000 51117.9328  24.1%     -    4s
     0     0 51118.7272    0  236 67344.0000 51118.7272  24.1%     -    4s
     0     0 51119.9393    0  227 67344.0000 51119.9393  24.1%     -    4s
     0     0 51120.1765    0  239 67344.0000 51120.1765  24.1%     -    4s
     0     0 51170.5983    0  232 67344.0000 51170.5983  24.0%     -    4s
H    0     0                    57520.000000 51170.5983  11.0%     -    4s
     0     0 51177.1138    0  211 57520.0000 51177.1138  11.0%     -    4s
     0     0 51212.5496    0  208 57520.0000 51212.5496  11.0%     -    4s
H    0     0                    57456.000000 51212.5496  10.9%     -    4s
H    0     0                    54064.000000 51212.5496  5.27%     -    4s
     0     0 51212.8943    0  218 54064.0000 51212.8943  5.27%     -    4s
     0     0 51267.2505    0  235 54064.0000 51267.2505  5.17%     -    4s
     0     0 51267.2505    0  230 54064.0000 51267.2505  5.17%     -    4s
H    0     0                    53872.000000 51295.0553  4.78%     -    4s
H    0     0                    53856.000000 51295.0553  4.76%     -    4s
     0     0 51295.0553    0  139 53856.0000 51295.0553  4.76%     -    5s
H    0     0                    53840.000000 51295.0553  4.73%     -    5s
     0     0 51295.0553    0  140 53840.0000 51295.0553  4.73%     -    5s
     0     0 52195.1529    0  149 53840.0000 52195.1529  3.06%     -    5s
     0     0 53427.0130    0  116 53840.0000 53427.0130  0.77%     -    5s
H    0     0                    53776.000000 53427.0130  0.65%     -    5s
     0     0 53432.2948    0  126 53776.0000 53432.2948  0.64%     -    5s
     0     0 53432.8186    0  121 53776.0000 53432.8186  0.64%     -    5s
     0     0 53450.1958    0  143 53776.0000 53450.1958  0.61%     -    5s
     0     0 53450.1958    0   95 53776.0000 53450.1958  0.61%     -    5s
H    0     0                    53696.000000 53450.1958  0.46%     -    5s
     0     0 53450.1958    0  120 53696.0000 53450.1958  0.46%     -    5s
H    0     0                    53632.000000 53450.1958  0.34%     -    5s
H    0     0                    53600.000000 53450.1958  0.28%     -    5s
     0     0 53450.1958    0  134 53600.0000 53450.1958  0.28%     -    5s
     0     0 53450.1958    0  117 53600.0000 53450.1958  0.28%     -    5s
     0     0 53453.1405    0  126 53600.0000 53453.1405  0.27%     -    5s
     0     0 53456.6959    0  137 53600.0000 53456.6959  0.27%     -    5s
     0     0 53457.3230    0  136 53600.0000 53457.3230  0.27%     -    5s
     0     0 53457.3700    0  125 53600.0000 53457.3700  0.27%     -    5s
     0     0 53463.4082    0  148 53600.0000 53463.4082  0.25%     -    5s
H    0     0                    53568.000000 53463.4082  0.20%     -    5s
     0     0 53463.9055    0  136 53568.0000 53463.9055  0.19%     -    5s
     0     0 53463.9089    0  135 53568.0000 53463.9089  0.19%     -    5s
     0     0 53472.3047    0  137 53568.0000 53472.3047  0.18%     -    5s
     0     0 53473.0890    0  144 53568.0000 53473.0890  0.18%     -    5s
     0     0 53473.1095    0  148 53568.0000 53473.1095  0.18%     -    5s
     0     0 53476.2181    0  141 53568.0000 53476.2181  0.17%     -    5s
     0     0 53479.9221    0  144 53568.0000 53479.9221  0.16%     -    5s
     0     0 53481.5792    0  146 53568.0000 53481.5792  0.16%     -    5s
     0     0 53481.5987    0  147 53568.0000 53481.5987  0.16%     -    5s
     0     0 53482.0524    0  146 53568.0000 53482.0524  0.16%     -    5s
H    0     0                    53536.000000 53482.0524  0.10%     -    5s
     0     0 53482.1801    0  152 53536.0000 53482.1801  0.10%     -    5s
     0     0 53482.1801    0  150 53536.0000 53482.1801  0.10%     -    5s
     0     0 53482.3901    0  145 53536.0000 53482.3901  0.10%     -    5s
     0     0 53482.3901    0   90 53536.0000 53482.3901  0.10%     -    5s
     0     0 53482.3901    0  114 53536.0000 53482.3901  0.10%     -    5s
     0     0 53482.3901    0  116 53536.0000 53482.3901  0.10%     -    5s
     0     0 53482.3901    0  131 53536.0000 53482.3901  0.10%     -    5s
     0     0 53483.6364    0  123 53536.0000 53483.6364  0.10%     -    5s
     0     0 53483.6364    0  124 53536.0000 53483.6364  0.10%     -    5s
     0     0 53484.0000    0  118 53536.0000 53484.0000  0.10%     -    5s
     0     0 53484.5714    0  124 53536.0000 53484.5714  0.10%     -    5s
     0     0 53484.6857    0  132 53536.0000 53484.6857  0.10%     -    5s
     0     0 53484.6857    0  132 53536.0000 53484.6857  0.10%     -    5s
     0     0 53485.0133    0  123 53536.0000 53485.0133  0.10%     -    5s
     0     0 53485.0133    0  114 53536.0000 53485.0133  0.10%     -    5s
     0     0 53485.0133    0   85 53536.0000 53485.0133  0.10%     -    5s
     0     0 53485.0133    0   91 53536.0000 53485.0133  0.10%     -    5s
     0     0 53485.0133    0  117 53536.0000 53485.0133  0.10%     -    5s
     0     0 53485.0133    0  104 53536.0000 53485.0133  0.10%     -    5s
     0     0 53485.0133    0  100 53536.0000 53485.0133  0.10%     -    5s
     0     0 53485.0133    0  115 53536.0000 53485.0133  0.10%     -    5s
     0     0 53485.0133    0  117 53536.0000 53485.0133  0.10%     -    5s
     0     0 53485.0133    0  122 53536.0000 53485.0133  0.10%     -    5s
     0     0 53485.0133    0  114 53536.0000 53485.0133  0.10%     -    5s
     0     0 53486.3642    0  121 53536.0000 53486.3642  0.09%     -    5s
     0     0 53486.4516    0  117 53536.0000 53486.4516  0.09%     -    5s
     0     0 53486.5116    0  119 53536.0000 53486.5116  0.09%     -    5s
     0     0 53486.5116    0  117 53536.0000 53486.5116  0.09%     -    5s
     0     2 53488.0000    0  113 53536.0000 53488.0000  0.09%     -    5s
H   11     6                    53488.000000 53488.0000  0.00%  41.6    5s

Cutting planes:
  Cover: 3
  Clique: 21
  MIR: 16
  StrongCG: 1
  GUB cover: 32
  Zero half: 12
  RLT: 6
  Relax-and-lift: 1

Explored 17 nodes (57647 simplex iterations) in 5.64 seconds (8.25 work units)
Thread count was 8 (of 8 available processors)

Solution count 10: 53488 53536 53568 ... 53840

Optimal solution found (tolerance 1.00e-04)
Best objective 5.348800000000e+04, best bound 5.348800000000e+04, gap 0.0000%

Gurobi 9.5.2 (mac64[arm]) logging started Fri Apr 28 20:58:13 2023

Set parameter LogFile to value "Java/output/iterative_model_2_machine/scenario_seed_4_nJob_50_machineCount_2/mip_increment_2/log.txt"
Gurobi Optimizer version 9.5.2 build v9.5.2rc0 (mac64[arm])
Thread count: 8 physical cores, 8 logical processors, using up to 8 threads
Optimize a model with 1248 rows, 6723 columns and 48696 nonzeros
Model fingerprint: 0xbd2f4624
Variable types: 0 continuous, 6723 integer (6723 binary)
Coefficient statistics:
  Matrix range     [1e+00, 2e+02]
  Objective range  [2e+02, 6e+05]
  Bounds range     [1e+00, 1e+00]
  RHS range        [1e+00, 1e+00]
Presolve removed 424 rows and 1117 columns
Presolve time: 0.05s
Presolved: 824 rows, 5606 columns, 40158 nonzeros
Variable types: 0 continuous, 5606 integer (5604 binary)

Root relaxation: objective 2.832517e+04, 1275 iterations, 0.03 seconds (0.05 work units)

    Nodes    |    Current Node    |     Objective Bounds      |     Work
 Expl Unexpl |  Obj  Depth IntInf | Incumbent    BestBd   Gap | It/Node Time

     0     0 28325.1720    0   77          - 28325.1720      -     -    0s
H    0     0                    1246736.0000 28325.1720  97.7%     -    0s
H    0     0                    819164.00000 28325.1720  96.5%     -    0s
H    0     0                    340680.00000 28706.7833  91.6%     -    0s
H    0     0                    316664.00000 28706.7833  90.9%     -    0s
     0     0 28706.7833    0  160 316664.000 28706.7833  90.9%     -    0s
H    0     0                    298080.00000 28706.7833  90.4%     -    0s
H    0     0                    233016.00000 28706.7833  87.7%     -    0s
H    0     0                    38336.000000 28706.7833  25.1%     -    0s
H    0     0                    38288.000000 28706.7833  25.0%     -    0s
     0     0 28706.7833    0  153 38288.0000 28706.7833  25.0%     -    0s
     0     0 29094.6704    0  128 38288.0000 29094.6704  24.0%     -    0s
     0     0 29094.6704    0   81 38288.0000 29094.6704  24.0%     -    0s
     0     0 29094.6704    0  173 38288.0000 29094.6704  24.0%     -    0s
     0     0 29094.6704    0  150 38288.0000 29094.6704  24.0%     -    0s
     0     0 29145.1974    0  160 38288.0000 29145.1974  23.9%     -    0s
     0     0 29153.6516    0  153 38288.0000 29153.6516  23.9%     -    0s
     0     0 30507.7277    0  176 38288.0000 30507.7277  20.3%     -    0s
H    0     0                    33576.000000 30507.7277  9.14%     -    0s
H    0     0                    33016.000000 30507.7277  7.60%     -    0s
     0     0 30521.4530    0  180 33016.0000 30521.4530  7.56%     -    0s
     0     0 30521.5162    0  183 33016.0000 30521.5162  7.56%     -    0s
     0     0 31698.7674    0  187 33016.0000 31698.7674  3.99%     -    0s
H    0     0                    32640.000000 31698.7674  2.88%     -    0s
     0     0 31727.2287    0  179 32640.0000 31727.2287  2.80%     -    0s
     0     0 31730.9748    0  167 32640.0000 31730.9748  2.79%     -    0s
     0     0 31730.9748    0  169 32640.0000 31730.9748  2.79%     -    0s
     0     0     cutoff    0      32640.0000 32640.0000  0.00%     -    0s

Cutting planes:
  Gomory: 1
  Cover: 13
  Clique: 49
  MIR: 17
  StrongCG: 7
  GUB cover: 32
  Zero half: 21
  RLT: 12

Explored 1 nodes (6551 simplex iterations) in 0.61 seconds (0.79 work units)
Thread count was 8 (of 8 available processors)

Solution count 10: 32640 33016 33576 ... 340680

Optimal solution found (tolerance 1.00e-04)
Best objective 3.264000000000e+04, best bound 3.264000000000e+04, gap 0.0000%

Gurobi 9.5.2 (mac64[arm]) logging started Fri Apr 28 20:58:13 2023

Set parameter LogFile to value "Java/output/iterative_model_2_machine/scenario_seed_4_nJob_50_machineCount_2/mip_increment_2/log.txt"
Gurobi Optimizer version 9.5.2 build v9.5.2rc0 (mac64[arm])
Thread count: 8 physical cores, 8 logical processors, using up to 8 threads
Optimize a model with 1236 rows, 3650 columns and 26136 nonzeros
Model fingerprint: 0xba801961
Variable types: 0 continuous, 3650 integer (3650 binary)
Coefficient statistics:
  Matrix range     [1e+00, 2e+02]
  Objective range  [1e+02, 5e+04]
  Bounds range     [1e+00, 1e+00]
  RHS range        [1e+00, 1e+00]
Found heuristic solution: objective 294884.00000
Presolve removed 720 rows and 520 columns
Presolve time: 0.03s
Presolved: 516 rows, 3130 columns, 22293 nonzeros
Variable types: 0 continuous, 3130 integer (3130 binary)
Found heuristic solution: objective 247245.00000

Root relaxation: objective 1.649361e+04, 1245 iterations, 0.02 seconds (0.04 work units)

    Nodes    |    Current Node    |     Objective Bounds      |     Work
 Expl Unexpl |  Obj  Depth IntInf | Incumbent    BestBd   Gap | It/Node Time

     0     0 16493.6095    0  100 247245.000 16493.6095  93.3%     -    0s
H    0     0                    100808.00000 16493.6095  83.6%     -    0s
H    0     0                    93617.000000 16493.6095  82.4%     -    0s
H    0     0                    57734.000000 16493.6095  71.4%     -    0s
H    0     0                    31226.000000 16493.6095  47.2%     -    0s
H    0     0                    28580.000000 16772.4487  41.3%     -    0s
     0     0 16926.5344    0   92 28580.0000 16926.5344  40.8%     -    0s
H    0     0                    22800.000000 16926.5344  25.8%     -    0s
     0     0 16937.3991    0   98 22800.0000 16937.3991  25.7%     -    0s
     0     0 16937.3991    0  101 22800.0000 16937.3991  25.7%     -    0s
     0     0 16993.1242    0  130 22800.0000 16993.1242  25.5%     -    0s
H    0     0                    22796.000000 16993.1242  25.5%     -    0s
     0     0 16993.2692    0  127 22796.0000 16993.2692  25.5%     -    0s
     0     0 17017.6981    0   98 22796.0000 17017.6981  25.3%     -    0s
     0     0 17090.3765    0  105 22796.0000 17090.3765  25.0%     -    0s
     0     0 17091.0289    0  101 22796.0000 17091.0289  25.0%     -    0s
     0     0 17091.0636    0  101 22796.0000 17091.0636  25.0%     -    0s
     0     0 17103.3090    0  116 22796.0000 17103.3090  25.0%     -    0s
     0     0 17104.4699    0  111 22796.0000 17104.4699  25.0%     -    0s
     0     0 17104.4785    0  116 22796.0000 17104.4785  25.0%     -    0s
     0     0 17117.4804    0  148 22796.0000 17117.4804  24.9%     -    0s
H    0     0                    18926.000000 17117.4804  9.56%     -    0s
     0     0 17118.1923    0  138 18926.0000 17118.1923  9.55%     -    0s
     0     0 17118.2712    0  150 18926.0000 17118.2712  9.55%     -    0s
     0     0 17133.5926    0   84 18926.0000 17133.5926  9.47%     -    0s
     0     0 17133.5926    0   87 18926.0000 17133.5926  9.47%     -    0s
H    0     0                    18925.000000 17133.5926  9.47%     -    0s
     0     0 17133.5926    0   73 18925.0000 17133.5926  9.47%     -    0s
     0     0 17133.5926    0   88 18925.0000 17133.5926  9.47%     -    0s
     0     0 17133.5926    0  122 18925.0000 17133.5926  9.47%     -    0s
     0     0 17138.0115    0   90 18925.0000 17138.0115  9.44%     -    0s
     0     0 17139.6192    0   89 18925.0000 17139.6192  9.43%     -    0s
     0     0 17139.6192    0   91 18925.0000 17139.6192  9.43%     -    0s
     0     0 17144.9417    0  105 18925.0000 17144.9417  9.41%     -    0s
     0     0 17145.1319    0  104 18925.0000 17145.1319  9.40%     -    0s
     0     0 17221.9826    0  122 18925.0000 17221.9826  9.00%     -    0s
     0     0 17222.4956    0  122 18925.0000 17222.4956  9.00%     -    0s
     0     0 17223.2314    0  123 18925.0000 17223.2314  8.99%     -    0s
     0     0 17223.7557    0  130 18925.0000 17223.7557  8.99%     -    0s
H    0     0                    18575.000000 17223.7557  7.27%     -    0s
     0     0 17257.0000    0   81 18575.0000 17257.0000  7.10%     -    0s
H    0     0                    18453.000000 17257.0000  6.48%     -    0s
H    0     0                    18409.000000 17257.0000  6.26%     -    0s
     0     0 17287.7500    0   71 18409.0000 17287.7500  6.09%     -    0s
     0     0 17317.4759    0  143 18409.0000 17317.4759  5.93%     -    0s
     0     0 17320.0935    0  133 18409.0000 17320.0935  5.92%     -    0s
     0     0 17320.1111    0  131 18409.0000 17320.1111  5.91%     -    0s
     0     0 17326.0319    0  131 18409.0000 17326.0319  5.88%     -    0s
     0     0 17326.9079    0  144 18409.0000 17326.9079  5.88%     -    0s
     0     0 17326.9091    0  143 18409.0000 17326.9091  5.88%     -    0s
H    0     0                    18182.000000 17326.9091  4.70%     -    0s
     0     0 17332.7500    0  103 18182.0000 17332.7500  4.67%     -    0s
     0     0 17332.7500    0  102 18182.0000 17332.7500  4.67%     -    0s
     0     0 17342.8400    0  159 18182.0000 17342.8400  4.62%     -    0s
H    0     0                    17387.000000 17342.8400  0.25%     -    0s
     0     0     cutoff    0      17387.0000 17387.0000  0.00%     -    0s

Cutting planes:
  Gomory: 5
  Cover: 4
  Clique: 21
  MIR: 30
  StrongCG: 16
  GUB cover: 56
  Zero half: 19
  RLT: 5

Explored 1 nodes (9395 simplex iterations) in 0.82 seconds (1.09 work units)
Thread count was 8 (of 8 available processors)

Solution count 10: 17387 18182 18409 ... 28580

Optimal solution found (tolerance 1.00e-04)
Best objective 1.738700000000e+04, best bound 1.738700000000e+04, gap 0.0000%

Gurobi 9.5.2 (mac64[arm]) logging started Fri Apr 28 20:58:15 2023

Set parameter LogFile to value "Java/output/iterative_model_2_machine/scenario_seed_4_nJob_50_machineCount_2/mip_increment_2/log.txt"
Gurobi Optimizer version 9.5.2 build v9.5.2rc0 (mac64[arm])
Thread count: 8 physical cores, 8 logical processors, using up to 8 threads
Optimize a model with 2558 rows, 56356 columns and 646791 nonzeros
Model fingerprint: 0x8f45e56f
Variable types: 0 continuous, 56356 integer (56356 binary)
Coefficient statistics:
  Matrix range     [1e+00, 2e+02]
  Objective range  [5e+00, 4e+06]
  Bounds range     [1e+00, 1e+00]
  RHS range        [1e+00, 1e+00]

Warning: Completing partial solution with 56210 unfixed non-continuous variables out of 56356
User MIP start produced solution with objective 45789 (0.04s)
Loaded user MIP start with objective 45789

Presolve removed 106 rows and 6621 columns
Presolve time: 0.76s
Presolved: 2452 rows, 49735 columns, 576219 nonzeros
Variable types: 0 continuous, 49735 integer (49735 binary)
Found heuristic solution: objective 45521.000000

Root simplex log...

Iteration    Objective       Primal Inf.    Dual Inf.      Time
   23787    1.6419584e+04   2.451726e+04   0.000000e+00      5s
   41316    1.6670575e+04   1.068646e+04   0.000000e+00     10s
   41786    1.6670985e+04   0.000000e+00   0.000000e+00     10s

Root relaxation: objective 1.667099e+04, 41786 iterations, 9.37 seconds (25.17 work units)

    Nodes    |    Current Node    |     Objective Bounds      |     Work
 Expl Unexpl |  Obj  Depth IntInf | Incumbent    BestBd   Gap | It/Node Time

     0     0 16670.9855    0  666 45521.0000 16670.9855  63.4%     -   10s
H    0     0                    44448.000000 16670.9855  62.5%     -   10s
H    0     0                    44174.000000 16670.9855  62.3%     -   10s
H    0     0                    42830.000000 16710.3266  61.0%     -   15s
     0     0 16710.3266    0  809 42830.0000 16710.3266  61.0%     -   16s
H    0     0                    42822.000000 16710.3266  61.0%     -   16s
H    0     0                    42806.000000 16710.3266  61.0%     -   16s
H    0     0                    42791.999981 16710.3266  60.9%     -   16s
     0     0 16725.5546    0  885 42792.0000 16725.5546  60.9%     -   20s
     0     0 16725.6161    0  872 42792.0000 16725.6161  60.9%     -   21s
     0     0 16725.6196    0  875 42792.0000 16725.6196  60.9%     -   21s
     0     0 16749.4916    0  934 42792.0000 16749.4916  60.9%     -   26s
H    0     0                    42525.000000 16749.4916  60.6%     -   26s
     0     0 16757.8741    0  990 42525.0000 16757.8741  60.6%     -   30s
     0     0 16758.8107    0 1023 42525.0000 16758.8107  60.6%     -   31s
     0     0 16758.9317    0 1030 42525.0000 16758.9317  60.6%     -   32s
     0     0 16758.9442    0 1024 42525.0000 16758.9442  60.6%     -   32s
     0     0 16778.5617    0 1027 42525.0000 16778.5617  60.5%     -   37s
H    0     0                    42493.000000 16778.5617  60.5%     -   37s
H    0     0                    42450.000000 16778.5617  60.5%     -   40s
     0     0 16787.6777    0 1001 42450.0000 16787.6777  60.5%     -   44s
     0     0 16795.3944    0 1074 42450.0000 16795.3944  60.4%     -   48s
     0     0 16797.5916    0 1105 42450.0000 16797.5916  60.4%     -   49s
     0     0 16797.7818    0 1130 42450.0000 16797.7818  60.4%     -   50s
     0     0 16797.7905    0 1142 42450.0000 16797.7905  60.4%     -   50s
     0     0 16920.1874    0 1097 42450.0000 16920.1874  60.1%     -   61s
H    0     0                    42434.000000 16920.1874  60.1%     -   61s
H    0     0                    42406.000000 16920.1874  60.1%     -   61s
     0     0 16969.8529    0 1073 42406.0000 16969.8529  60.0%     -   69s
     0     0 16976.7109    0 1058 42406.0000 16976.7109  60.0%     -   72s
     0     0 16977.4379    0 1071 42406.0000 16977.4379  60.0%     -   73s
     0     0 16977.4532    0 1072 42406.0000 16977.4532  60.0%     -   73s
     0     0 17091.2052    0 1118 42406.0000 17091.2052  59.7%     -   82s
     0     0 17091.2052    0  692 42406.0000 17091.2052  59.7%     -   92s
H    0     0                    42387.000000 17091.2052  59.7%     -   92s
     0     0 17091.2052    0  886 42387.0000 17091.2052  59.7%     -   99s
H    0     0                    42386.000000 17091.2052  59.7%     -  100s
     0     0 17226.6037    0  955 42386.0000 17226.6037  59.4%     -  107s
     0     0 17559.7932    0 1026 42386.0000 17559.7932  58.6%     -  112s
     0     0 17575.8864    0 1045 42386.0000 17575.8864  58.5%     -  114s
     0     0 17576.5935    0 1069 42386.0000 17576.5935  58.5%     -  115s
     0     0 17576.6742    0 1061 42386.0000 17576.6742  58.5%     -  115s
     0     0 17576.6869    0 1086 42386.0000 17576.6869  58.5%     -  115s
     0     0 18365.6911    0 1070 42386.0000 18365.6911  56.7%     -  123s
     0     0 18436.1431    0 1119 42386.0000 18436.1431  56.5%     -  129s
     0     0 18467.0385    0 1136 42386.0000 18467.0385  56.4%     -  134s
     0     0 18470.6792    0 1164 42386.0000 18470.6792  56.4%     -  135s
     0     0 18470.9481    0 1185 42386.0000 18470.9481  56.4%     -  136s
H    0     0                    42380.000000 18470.9481  56.4%     -  145s
     0     0 19137.1158    0 1097 42380.0000 19137.1158  54.8%     -  145s
H    0     0                    42325.000000 19137.1158  54.8%     -  148s
     0     0 19190.1836    0 1168 42325.0000 19190.1836  54.7%     -  152s
     0     0 19218.2805    0 1160 42325.0000 19218.2805  54.6%     -  157s
     0     0 19233.1363    0 1230 42325.0000 19233.1363  54.6%     -  161s
     0     0 19235.7511    0 1227 42325.0000 19235.7511  54.6%     -  162s
     0     0 19236.2273    0 1225 42325.0000 19236.2273  54.6%     -  162s
     0     0 21613.7553    0 1167 42325.0000 21613.7553  48.9%     -  179s
     0     0 21997.5865    0 1220 42325.0000 21997.5865  48.0%     -  185s
     0     0 22085.7256    0 1241 42325.0000 22085.7256  47.8%     -  192s
     0     0 22092.8951    0 1265 42325.0000 22092.8951  47.8%     -  195s
     0     0 22094.6151    0 1271 42325.0000 22094.6151  47.8%     -  197s
H    0     0                    42166.000000 22094.6151  47.6%     -  206s
     0     0 25444.0455    0 1199 42166.0000 25444.0455  39.7%     -  206s
H    0     0                    42026.000000 25444.0455  39.5%     -  210s
     0     0 25561.4352    0 1228 42026.0000 25561.4352  39.2%     -  215s
     0     0 25581.7086    0 1260 42026.0000 25581.7086  39.1%     -  219s
     0     0 25586.6242    0 1265 42026.0000 25586.6242  39.1%     -  220s
     0     0 25588.7136    0 1292 42026.0000 25588.7136  39.1%     -  221s
     0     0 28468.4132    0 1205 42026.0000 28468.4132  32.3%     -  230s
H    0     0                    42024.000000 28468.4132  32.3%     -  230s
     0     0 28908.7071    0 1223 42024.0000 28908.7071  31.2%     -  240s
     0     0 29031.5345    0 1274 42024.0000 29031.5345  30.9%     -  248s
     0     0 29048.0374    0 1268 42024.0000 29048.0374  30.9%     -  252s
     0     0 29050.7111    0 1338 42024.0000 29050.7111  30.9%     -  254s
     0     0 30316.6518    0 1286 42024.0000 30316.6518  27.9%     -  264s
H    0     0                    42021.000000 30316.6518  27.9%     -  264s
     0     0 30591.7284    0 1306 42021.0000 30591.7284  27.2%     -  272s
     0     0 30603.3652    0 1341 42021.0000 30603.3652  27.2%     -  275s
     0     0 30608.5578    0 1359 42021.0000 30608.5578  27.2%     -  278s
     0     0 32083.8041    0 1187 42021.0000 32083.8041  23.6%     -  289s
     0     0 32221.5665    0 1257 42021.0000 32221.5665  23.3%     -  294s
     0     0 32234.0664    0 1315 42021.0000 32234.0664  23.3%     -  297s
     0     0 32301.1254    0 1336 42021.0000 32301.1254  23.1%     -  303s
     0     0 32306.2163    0 1363 42021.0000 32306.2163  23.1%     -  305s
     0     0 34288.2369    0 1288 42021.0000 34288.2369  18.4%     -  317s
     0     0 34437.9594    0 1277 42021.0000 34437.9594  18.0%     -  324s
     0     0 34489.8561    0 1342 42021.0000 34489.8561  17.9%     -  332s
     0     0 34495.8713    0 1396 42021.0000 34495.8713  17.9%     -  335s
     0     0 36352.5203    0 1289 42021.0000 36352.5203  13.5%     -  356s
H    0     0                    42002.000000 36352.5203  13.5%     -  356s
     0     0 36501.8359    0 1309 42002.0000 36501.8359  13.1%     -  365s
     0     0 36522.1566    0 1339 42002.0000 36522.1566  13.0%     -  370s
     0     0 36551.9621    0 1405 42002.0000 36551.9621  13.0%     -  375s
     0     0 36559.6987    0 1421 42002.0000 36559.6987  13.0%     -  378s
     0     0 37274.9851    0 1298 42002.0000 37274.9851  11.3%     -  418s
H    0     0                    42000.000000 37274.9851  11.3%     -  419s
     0     0 37455.2814    0 1375 42000.0000 37455.2814  10.8%     -  428s
     0     0 37541.4983    0 1444 42000.0000 37541.4983  10.6%     -  434s
     0     0 37570.6399    0 1419 42000.0000 37570.6399  10.5%     -  438s
     0     0 37579.5477    0 1464 42000.0000 37579.5477  10.5%     -  441s
     0     0 38623.8157    0 1439 42000.0000 38623.8157  8.04%     -  458s
H    0     0                    41998.000000 38623.8157  8.03%     -  458s
     0     0 38848.8653    0 1443 41998.0000 38848.8653  7.50%     -  468s
     0     0 38882.5307    0 1457 41998.0000 38882.5307  7.42%     -  472s
     0     0 38897.4603    0 1488 41998.0000 38897.4603  7.38%     -  475s
     0     0 38991.3997    0 1483 41998.0000 38991.3997  7.16%     -  483s
     0     0 39014.0543    0 1512 41998.0000 39014.0543  7.10%     -  498s
     0     0 39022.3548    0 1507 41998.0000 39022.3548  7.09%     -  501s
     0     0 39239.7115    0 1481 41998.0000 39239.7115  6.57%     -  510s
H    0     0                    41986.000000 39239.7115  6.54%     -  510s
     0     0 39327.2994    0 1522 41986.0000 39327.2994  6.33%     -  518s
     0     0 39350.9839    0 1543 41986.0000 39350.9839  6.28%     -  526s
     0     0 39367.8885    0 1569 41986.0000 39367.8885  6.24%     -  530s
     0     0 39411.1423    0 1554 41986.0000 39411.1423  6.13%     -  539s
     0     0 39411.1423    0 1551 41986.0000 39411.1423  6.13%     -  540s
H    0     0                    41983.000000 39411.1423  6.13%     -  556s
     0     0 39411.9895    0  704 41983.0000 39411.9895  6.12%     -  568s
     0     0 39411.9895    0  829 41983.0000 39411.9895  6.12%     -  572s
     0     0 39411.9895    0  943 41983.0000 39411.9895  6.12%     -  577s
     0     0 39411.9895    0 1012 41983.0000 39411.9895  6.12%     -  581s
     0     0 39411.9895    0 1179 41983.0000 39411.9895  6.12%     -  587s
     0     0          -    0      41983.0000 39411.9895  6.12%     -  592s

Cutting planes:
  Cover: 2
  Clique: 139
  MIR: 179
  StrongCG: 66
  GUB cover: 205

Explored 1 nodes (1160446 simplex iterations) in 592.01 seconds (1485.40 work units)
Thread count was 8 (of 8 available processors)

Solution count 10: 41983 41986 41998 ... 42325

Time limit reached
Best objective 4.198300000000e+04, best bound 3.941200000000e+04, gap 6.1239%
